SIMON/SIMON48/SIMON8/SIMON15.sol
# Objective value = 46
xobj 46
L1_r1 0
L8_r1 0
v_AfterAnd_1_0 0
L2_r1 1
L9_r1 0
v_AfterAnd_1_1 0
L3_r1 0
L10_r1 0
v_AfterAnd_1_2 0
L4_r1 0
L11_r1 0
v_AfterAnd_1_3 0
L5_r1 0
L12_r1 0
v_AfterAnd_1_4 0
L6_r1 0
L13_r1 0
v_AfterAnd_1_5 0
L7_r1 0
L14_r1 0
v_AfterAnd_1_6 0
L15_r1 0
v_AfterAnd_1_7 0
L16_r1 0
v_AfterAnd_1_8 0
L17_r1 0
v_AfterAnd_1_9 0
L18_r1 0
v_AfterAnd_1_10 0
L19_r1 0
v_AfterAnd_1_11 0
L20_r1 0
v_AfterAnd_1_12 0
L21_r1 0
v_AfterAnd_1_13 0
L22_r1 0
v_AfterAnd_1_14 0
L23_r1 0
v_AfterAnd_1_15 0
L0_r1 0
v_AfterAnd_1_16 0
v_AfterAnd_1_17 0
v_AfterAnd_1_18 0
v_AfterAnd_1_19 0
v_AfterAnd_1_20 0
v_AfterAnd_1_21 0
v_AfterAnd_1_22 0
v_AfterAnd_1_23 0
S0_r1 0
S1_r1 1
S2_r1 0
S3_r1 0
S4_r1 0
S5_r1 0
S6_r1 0
S7_r1 0
S8_r1 0
S9_r1 0
S10_r1 0
S11_r1 0
S12_r1 0
S13_r1 0
S14_r1 0
S15_r1 0
S16_r1 0
S17_r1 0
S18_r1 1
S19_r1 0
S20_r1 0
S21_r1 0
S22_r1 0
S23_r1 0
R0_r1 1
L0_r2 0
R1_r1 0
L1_r2 0
R2_r1 0
L2_r2 0
R3_r1 0
L3_r2 0
R4_r1 1
L4_r2 1
R5_r1 0
L5_r2 0
R6_r1 0
L6_r2 0
R7_r1 0
L7_r2 0
R8_r1 0
L8_r2 0
R9_r1 0
L9_r2 0
R10_r1 0
L10_r2 0
R11_r1 0
L11_r2 0
R12_r1 0
L12_r2 0
R13_r1 0
L13_r2 0
R14_r1 0
L14_r2 0
R15_r1 0
L15_r2 0
R16_r1 0
L16_r2 0
R17_r1 0
L17_r2 0
R18_r1 0
L18_r2 0
R19_r1 0
L19_r2 0
R20_r1 0
L20_r2 0
R21_r1 0
L21_r2 0
R22_r1 0
L22_r2 0
R23_r1 0
L23_r2 0
R0_r2 0
R1_r2 0
R2_r2 1
R3_r2 0
R4_r2 0
R5_r2 0
R6_r2 0
R7_r2 0
R8_r2 0
R9_r2 0
R10_r2 0
R11_r2 0
R12_r2 0
R13_r2 0
R14_r2 0
R15_r2 0
R16_r2 0
R17_r2 0
R18_r2 0
R19_r2 0
R20_r2 0
R21_r2 0
R22_r2 0
R23_r2 0
v_AfterAnd_2_0 0
v_AfterAnd_2_1 0
v_AfterAnd_2_2 0
v_AfterAnd_2_3 0
v_AfterAnd_2_4 0
v_AfterAnd_2_5 0
v_AfterAnd_2_6 0
v_AfterAnd_2_7 0
v_AfterAnd_2_8 0
v_AfterAnd_2_9 0
v_AfterAnd_2_10 0
v_AfterAnd_2_11 0
v_AfterAnd_2_12 0
v_AfterAnd_2_13 0
v_AfterAnd_2_14 0
v_AfterAnd_2_15 0
v_AfterAnd_2_16 0
v_AfterAnd_2_17 0
v_AfterAnd_2_18 0
v_AfterAnd_2_19 0
v_AfterAnd_2_20 0
v_AfterAnd_2_21 0
v_AfterAnd_2_22 0
v_AfterAnd_2_23 0
S0_r2 0
S1_r2 0
S2_r2 0
S3_r2 1
S4_r2 0
S5_r2 0
S6_r2 0
S7_r2 0
S8_r2 0
S9_r2 0
S10_r2 0
S11_r2 0
S12_r2 0
S13_r2 0
S14_r2 0
S15_r2 0
S16_r2 0
S17_r2 0
S18_r2 0
S19_r2 0
S20_r2 1
S21_r2 0
S22_r2 0
S23_r2 0
L0_r3 0
L1_r3 0
L2_r3 0
L3_r3 0
L4_r3 0
L5_r3 0
L6_r3 0
L7_r3 0
L8_r3 0
L9_r3 0
L10_r3 0
L11_r3 0
L12_r3 0
L13_r3 0
L14_r3 0
L15_r3 0
L16_r3 0
L17_r3 0
L18_r3 0
L19_r3 0
L20_r3 0
L21_r3 0
L22_r3 0
L23_r3 0
R0_r3 0
R1_r3 0
R2_r3 0
R3_r3 0
R4_r3 1
R5_r3 0
R6_r3 0
R7_r3 0
R8_r3 0
R9_r3 0
R10_r3 0
R11_r3 0
R12_r3 0
R13_r3 0
R14_r3 0
R15_r3 0
R16_r3 0
R17_r3 0
R18_r3 0
R19_r3 0
R20_r3 0
R21_r3 0
R22_r3 0
R23_r3 0
v_AfterAnd_3_0 0
v_AfterAnd_3_1 0
v_AfterAnd_3_2 0
v_AfterAnd_3_3 0
v_AfterAnd_3_4 0
v_AfterAnd_3_5 0
v_AfterAnd_3_6 0
v_AfterAnd_3_7 0
v_AfterAnd_3_8 0
v_AfterAnd_3_9 0
v_AfterAnd_3_10 0
v_AfterAnd_3_11 0
v_AfterAnd_3_12 0
v_AfterAnd_3_13 0
v_AfterAnd_3_14 0
v_AfterAnd_3_15 0
v_AfterAnd_3_16 0
v_AfterAnd_3_17 0
v_AfterAnd_3_18 0
v_AfterAnd_3_19 0
v_AfterAnd_3_20 0
v_AfterAnd_3_21 0
v_AfterAnd_3_22 0
v_AfterAnd_3_23 0
S0_r3 0
S1_r3 0
S2_r3 0
S3_r3 0
S4_r3 0
S5_r3 0
S6_r3 0
S7_r3 0
S8_r3 0
S9_r3 0
S10_r3 0
S11_r3 0
S12_r3 0
S13_r3 0
S14_r3 0
S15_r3 0
S16_r3 0
S17_r3 0
S18_r3 0
S19_r3 0
S20_r3 0
S21_r3 0
S22_r3 0
S23_r3 0
L0_r4 0
L1_r4 0
L2_r4 0
L3_r4 0
L4_r4 1
L5_r4 0
L6_r4 0
L7_r4 0
L8_r4 0
L9_r4 0
L10_r4 0
L11_r4 0
L12_r4 0
L13_r4 0
L14_r4 0
L15_r4 0
L16_r4 0
L17_r4 0
L18_r4 0
L19_r4 0
L20_r4 0
L21_r4 0
L22_r4 0
L23_r4 0
R0_r4 0
R1_r4 0
R2_r4 0
R3_r4 0
R4_r4 0
R5_r4 0
R6_r4 0
R7_r4 0
R8_r4 0
R9_r4 0
R10_r4 0
R11_r4 0
R12_r4 0
R13_r4 0
R14_r4 0
R15_r4 0
R16_r4 0
R17_r4 0
R18_r4 0
R19_r4 0
R20_r4 0
R21_r4 0
R22_r4 0
R23_r4 0
v_AfterAnd_4_0 0
v_AfterAnd_4_1 0
v_AfterAnd_4_2 0
v_AfterAnd_4_3 0
v_AfterAnd_4_4 0
v_AfterAnd_4_5 0
v_AfterAnd_4_6 0
v_AfterAnd_4_7 0
v_AfterAnd_4_8 0
v_AfterAnd_4_9 0
v_AfterAnd_4_10 0
v_AfterAnd_4_11 0
v_AfterAnd_4_12 0
v_AfterAnd_4_13 0
v_AfterAnd_4_14 0
v_AfterAnd_4_15 0
v_AfterAnd_4_16 0
v_AfterAnd_4_17 0
v_AfterAnd_4_18 0
v_AfterAnd_4_19 0
v_AfterAnd_4_20 1
v_AfterAnd_4_21 0
v_AfterAnd_4_22 0
v_AfterAnd_4_23 0
S0_r4 0
S1_r4 0
S2_r4 0
S3_r4 1
S4_r4 0
S5_r4 0
S6_r4 0
S7_r4 0
S8_r4 0
S9_r4 0
S10_r4 0
S11_r4 0
S12_r4 0
S13_r4 0
S14_r4 0
S15_r4 0
S16_r4 0
S17_r4 0
S18_r4 0
S19_r4 0
S20_r4 1
S21_r4 0
S22_r4 0
S23_r4 0
L0_r5 0
L1_r5 0
L2_r5 1
L3_r5 0
L4_r5 0
L5_r5 0
L6_r5 0
L7_r5 0
L8_r5 0
L9_r5 0
L10_r5 0
L11_r5 0
L12_r5 0
L13_r5 0
L14_r5 0
L15_r5 0
L16_r5 0
L17_r5 0
L18_r5 0
L19_r5 0
L20_r5 1
L21_r5 0
L22_r5 0
L23_r5 0
R0_r5 0
R1_r5 0
R2_r5 0
R3_r5 0
R4_r5 1
R5_r5 0
R6_r5 0
R7_r5 0
R8_r5 0
R9_r5 0
R10_r5 0
R11_r5 0
R12_r5 0
R13_r5 0
R14_r5 0
R15_r5 0
R16_r5 0
R17_r5 0
R18_r5 0
R19_r5 0
R20_r5 0
R21_r5 0
R22_r5 0
R23_r5 0
v_AfterAnd_5_0 0
v_AfterAnd_5_1 0
v_AfterAnd_5_2 0
v_AfterAnd_5_3 0
v_AfterAnd_5_4 0
v_AfterAnd_5_5 0
v_AfterAnd_5_6 0
v_AfterAnd_5_7 0
v_AfterAnd_5_8 0
v_AfterAnd_5_9 0
v_AfterAnd_5_10 0
v_AfterAnd_5_11 0
v_AfterAnd_5_12 1
v_AfterAnd_5_13 0
v_AfterAnd_5_14 0
v_AfterAnd_5_15 0
v_AfterAnd_5_16 0
v_AfterAnd_5_17 0
v_AfterAnd_5_18 1
v_AfterAnd_5_19 0
v_AfterAnd_5_20 0
v_AfterAnd_5_21 0
v_AfterAnd_5_22 0
v_AfterAnd_5_23 0
S0_r5 0
S1_r5 1
S2_r5 0
S3_r5 0
S4_r5 0
S5_r5 0
S6_r5 0
S7_r5 0
S8_r5 0
S9_r5 0
S10_r5 0
S11_r5 0
S12_r5 1
S13_r5 0
S14_r5 0
S15_r5 0
S16_r5 0
S17_r5 0
S18_r5 1
S19_r5 1
S20_r5 0
S21_r5 0
S22_r5 0
S23_r5 0
L0_r6 1
L1_r6 0
L2_r6 0
L3_r6 0
L4_r6 1
L5_r6 0
L6_r6 0
L7_r6 0
L8_r6 0
L9_r6 0
L10_r6 0
L11_r6 0
L12_r6 1
L13_r6 0
L14_r6 0
L15_r6 0
L16_r6 0
L17_r6 0
L18_r6 0
L19_r6 0
L20_r6 0
L21_r6 0
L22_r6 0
L23_r6 0
R0_r6 0
R1_r6 0
R2_r6 1
R3_r6 0
R4_r6 0
R5_r6 0
R6_r6 0
R7_r6 0
R8_r6 0
R9_r6 0
R10_r6 0
R11_r6 0
R12_r6 0
R13_r6 0
R14_r6 0
R15_r6 0
R16_r6 0
R17_r6 0
R18_r6 0
R19_r6 0
R20_r6 1
R21_r6 0
R22_r6 0
R23_r6 0
v_AfterAnd_6_0 0
v_AfterAnd_6_1 0
v_AfterAnd_6_2 0
v_AfterAnd_6_3 0
v_AfterAnd_6_4 1
v_AfterAnd_6_5 0
v_AfterAnd_6_6 0
v_AfterAnd_6_7 0
v_AfterAnd_6_8 0
v_AfterAnd_6_9 0
v_AfterAnd_6_10 0
v_AfterAnd_6_11 0
v_AfterAnd_6_12 0
v_AfterAnd_6_13 0
v_AfterAnd_6_14 0
v_AfterAnd_6_15 0
v_AfterAnd_6_16 1
v_AfterAnd_6_17 0
v_AfterAnd_6_18 0
v_AfterAnd_6_19 0
v_AfterAnd_6_20 1
v_AfterAnd_6_21 0
v_AfterAnd_6_22 0
v_AfterAnd_6_23 0
S0_r6 0
S1_r6 0
S2_r6 0
S3_r6 1
S4_r6 1
S5_r6 0
S6_r6 0
S7_r6 0
S8_r6 0
S9_r6 0
S10_r6 0
S11_r6 1
S12_r6 0
S13_r6 0
S14_r6 0
S15_r6 0
S16_r6 1
S17_r6 0
S18_r6 0
S19_r6 0
S20_r6 1
S21_r6 0
S22_r6 0
S23_r6 1
L0_r7 0
L1_r7 0
L2_r7 0
L3_r7 0
L4_r7 1
L5_r7 0
L6_r7 0
L7_r7 0
L8_r7 0
L9_r7 0
L10_r7 1
L11_r7 0
L12_r7 0
L13_r7 0
L14_r7 0
L15_r7 0
L16_r7 1
L17_r7 0
L18_r7 0
L19_r7 0
L20_r7 0
L21_r7 0
L22_r7 1
L23_r7 0
R0_r7 1
R1_r7 0
R2_r7 0
R3_r7 0
R4_r7 1
R5_r7 0
R6_r7 0
R7_r7 0
R8_r7 0
R9_r7 0
R10_r7 0
R11_r7 0
R12_r7 1
R13_r7 0
R14_r7 0
R15_r7 0
R16_r7 0
R17_r7 0
R18_r7 0
R19_r7 0
R20_r7 0
R21_r7 0
R22_r7 0
R23_r7 0
v_AfterAnd_7_0 0
v_AfterAnd_7_1 0
v_AfterAnd_7_2 1
v_AfterAnd_7_3 0
v_AfterAnd_7_4 0
v_AfterAnd_7_5 0
v_AfterAnd_7_6 0
v_AfterAnd_7_7 0
v_AfterAnd_7_8 1
v_AfterAnd_7_9 0
v_AfterAnd_7_10 0
v_AfterAnd_7_11 0
v_AfterAnd_7_12 0
v_AfterAnd_7_13 0
v_AfterAnd_7_14 1
v_AfterAnd_7_15 0
v_AfterAnd_7_16 0
v_AfterAnd_7_17 0
v_AfterAnd_7_18 0
v_AfterAnd_7_19 0
v_AfterAnd_7_20 1
v_AfterAnd_7_21 0
v_AfterAnd_7_22 0
v_AfterAnd_7_23 0
S0_r7 0
S1_r7 0
S2_r7 1
S3_r7 1
S4_r7 0
S5_r7 0
S6_r7 0
S7_r7 0
S8_r7 1
S9_r7 1
S10_r7 0
S11_r7 0
S12_r7 0
S13_r7 0
S14_r7 1
S15_r7 1
S16_r7 0
S17_r7 0
S18_r7 0
S19_r7 0
S20_r7 1
S21_r7 1
S22_r7 0
S23_r7 0
L0_r8 1
L1_r8 0
L2_r8 0
L3_r8 0
L4_r8 1
L5_r8 0
L6_r8 0
L7_r8 0
L8_r8 0
L9_r8 0
L10_r8 0
L11_r8 0
L12_r8 1
L13_r8 0
L14_r8 0
L15_r8 0
L16_r8 0
L17_r8 0
L18_r8 0
L19_r8 0
L20_r8 0
L21_r8 0
L22_r8 0
L23_r8 0
R0_r8 0
R1_r8 0
R2_r8 0
R3_r8 0
R4_r8 1
R5_r8 0
R6_r8 0
R7_r8 0
R8_r8 0
R9_r8 0
R10_r8 1
R11_r8 0
R12_r8 0
R13_r8 0
R14_r8 0
R15_r8 0
R16_r8 1
R17_r8 0
R18_r8 0
R19_r8 0
R20_r8 0
R21_r8 0
R22_r8 1
R23_r8 0
v_AfterAnd_8_0 0
v_AfterAnd_8_1 0
v_AfterAnd_8_2 0
v_AfterAnd_8_3 0
v_AfterAnd_8_4 1
v_AfterAnd_8_5 0
v_AfterAnd_8_6 0
v_AfterAnd_8_7 0
v_AfterAnd_8_8 0
v_AfterAnd_8_9 0
v_AfterAnd_8_10 0
v_AfterAnd_8_11 0
v_AfterAnd_8_12 0
v_AfterAnd_8_13 0
v_AfterAnd_8_14 0
v_AfterAnd_8_15 0
v_AfterAnd_8_16 1
v_AfterAnd_8_17 0
v_AfterAnd_8_18 0
v_AfterAnd_8_19 0
v_AfterAnd_8_20 1
v_AfterAnd_8_21 0
v_AfterAnd_8_22 0
v_AfterAnd_8_23 0
S0_r8 0
S1_r8 0
S2_r8 0
S3_r8 1
S4_r8 1
S5_r8 0
S6_r8 0
S7_r8 0
S8_r8 0
S9_r8 0
S10_r8 0
S11_r8 1
S12_r8 0
S13_r8 0
S14_r8 0
S15_r8 0
S16_r8 1
S17_r8 0
S18_r8 0
S19_r8 0
S20_r8 1
S21_r8 0
S22_r8 0
S23_r8 1
L0_r9 0
L1_r9 0
L2_r9 1
L3_r9 0
L4_r9 0
L5_r9 0
L6_r9 0
L7_r9 0
L8_r9 0
L9_r9 0
L10_r9 0
L11_r9 0
L12_r9 0
L13_r9 0
L14_r9 0
L15_r9 0
L16_r9 0
L17_r9 0
L18_r9 0
L19_r9 0
L20_r9 1
L21_r9 0
L22_r9 0
L23_r9 0
R0_r9 1
R1_r9 0
R2_r9 0
R3_r9 0
R4_r9 1
R5_r9 0
R6_r9 0
R7_r9 0
R8_r9 0
R9_r9 0
R10_r9 0
R11_r9 0
R12_r9 1
R13_r9 0
R14_r9 0
R15_r9 0
R16_r9 0
R17_r9 0
R18_r9 0
R19_r9 0
R20_r9 0
R21_r9 0
R22_r9 0
R23_r9 0
v_AfterAnd_9_0 0
v_AfterAnd_9_1 0
v_AfterAnd_9_2 0
v_AfterAnd_9_3 0
v_AfterAnd_9_4 0
v_AfterAnd_9_5 0
v_AfterAnd_9_6 0
v_AfterAnd_9_7 0
v_AfterAnd_9_8 0
v_AfterAnd_9_9 0
v_AfterAnd_9_10 0
v_AfterAnd_9_11 0
v_AfterAnd_9_12 1
v_AfterAnd_9_13 0
v_AfterAnd_9_14 0
v_AfterAnd_9_15 0
v_AfterAnd_9_16 0
v_AfterAnd_9_17 0
v_AfterAnd_9_18 1
v_AfterAnd_9_19 0
v_AfterAnd_9_20 0
v_AfterAnd_9_21 0
v_AfterAnd_9_22 0
v_AfterAnd_9_23 0
S0_r9 0
S1_r9 1
S2_r9 0
S3_r9 0
S4_r9 0
S5_r9 0
S6_r9 0
S7_r9 0
S8_r9 0
S9_r9 0
S10_r9 0
S11_r9 0
S12_r9 1
S13_r9 0
S14_r9 0
S15_r9 0
S16_r9 0
S17_r9 0
S18_r9 1
S19_r9 1
S20_r9 0
S21_r9 0
S22_r9 0
S23_r9 0
L0_r10 0
L1_r10 0
L2_r10 0
L3_r10 0
L4_r10 1
L5_r10 0
L6_r10 0
L7_r10 0
L8_r10 0
L9_r10 0
L10_r10 0
L11_r10 0
L12_r10 0
L13_r10 0
L14_r10 0
L15_r10 0
L16_r10 0
L17_r10 0
L18_r10 0
L19_r10 0
L20_r10 0
L21_r10 0
L22_r10 0
L23_r10 0
R0_r10 0
R1_r10 0
R2_r10 1
R3_r10 0
R4_r10 0
R5_r10 0
R6_r10 0
R7_r10 0
R8_r10 0
R9_r10 0
R10_r10 0
R11_r10 0
R12_r10 0
R13_r10 0
R14_r10 0
R15_r10 0
R16_r10 0
R17_r10 0
R18_r10 0
R19_r10 0
R20_r10 1
R21_r10 0
R22_r10 0
R23_r10 0
v_AfterAnd_10_0 0
v_AfterAnd_10_1 0
v_AfterAnd_10_2 0
v_AfterAnd_10_3 0
v_AfterAnd_10_4 0
v_AfterAnd_10_5 0
v_AfterAnd_10_6 0
v_AfterAnd_10_7 0
v_AfterAnd_10_8 0
v_AfterAnd_10_9 0
v_AfterAnd_10_10 0
v_AfterAnd_10_11 0
v_AfterAnd_10_12 0
v_AfterAnd_10_13 0
v_AfterAnd_10_14 0
v_AfterAnd_10_15 0
v_AfterAnd_10_16 0
v_AfterAnd_10_17 0
v_AfterAnd_10_18 0
v_AfterAnd_10_19 0
v_AfterAnd_10_20 1
v_AfterAnd_10_21 0
v_AfterAnd_10_22 0
v_AfterAnd_10_23 0
S0_r10 0
S1_r10 0
S2_r10 0
S3_r10 1
S4_r10 0
S5_r10 0
S6_r10 0
S7_r10 0
S8_r10 0
S9_r10 0
S10_r10 0
S11_r10 0
S12_r10 0
S13_r10 0
S14_r10 0
S15_r10 0
S16_r10 0
S17_r10 0
S18_r10 0
S19_r10 0
S20_r10 1
S21_r10 0
S22_r10 0
S23_r10 0
L0_r11 0
L1_r11 0
L2_r11 0
L3_r11 0
L4_r11 0
L5_r11 0
L6_r11 0
L7_r11 0
L8_r11 0
L9_r11 0
L10_r11 0
L11_r11 0
L12_r11 0
L13_r11 0
L14_r11 0
L15_r11 0
L16_r11 0
L17_r11 0
L18_r11 0
L19_r11 0
L20_r11 0
L21_r11 0
L22_r11 0
L23_r11 0
R0_r11 0
R1_r11 0
R2_r11 0
R3_r11 0
R4_r11 1
R5_r11 0
R6_r11 0
R7_r11 0
R8_r11 0
R9_r11 0
R10_r11 0
R11_r11 0
R12_r11 0
R13_r11 0
R14_r11 0
R15_r11 0
R16_r11 0
R17_r11 0
R18_r11 0
R19_r11 0
R20_r11 0
R21_r11 0
R22_r11 0
R23_r11 0
v_AfterAnd_11_0 0
v_AfterAnd_11_1 0
v_AfterAnd_11_2 0
v_AfterAnd_11_3 0
v_AfterAnd_11_4 0
v_AfterAnd_11_5 0
v_AfterAnd_11_6 0
v_AfterAnd_11_7 0
v_AfterAnd_11_8 0
v_AfterAnd_11_9 0
v_AfterAnd_11_10 0
v_AfterAnd_11_11 0
v_AfterAnd_11_12 0
v_AfterAnd_11_13 0
v_AfterAnd_11_14 0
v_AfterAnd_11_15 0
v_AfterAnd_11_16 0
v_AfterAnd_11_17 0
v_AfterAnd_11_18 0
v_AfterAnd_11_19 0
v_AfterAnd_11_20 0
v_AfterAnd_11_21 0
v_AfterAnd_11_22 0
v_AfterAnd_11_23 0
S0_r11 0
S1_r11 0
S2_r11 0
S3_r11 0
S4_r11 0
S5_r11 0
S6_r11 0
S7_r11 0
S8_r11 0
S9_r11 0
S10_r11 0
S11_r11 0
S12_r11 0
S13_r11 0
S14_r11 0
S15_r11 0
S16_r11 0
S17_r11 0
S18_r11 0
S19_r11 0
S20_r11 0
S21_r11 0
S22_r11 0
S23_r11 0
L0_r12 0
L1_r12 0
L2_r12 0
L3_r12 0
L4_r12 1
L5_r12 0
L6_r12 0
L7_r12 0
L8_r12 0
L9_r12 0
L10_r12 0
L11_r12 0
L12_r12 0
L13_r12 0
L14_r12 0
L15_r12 0
L16_r12 0
L17_r12 0
L18_r12 0
L19_r12 0
L20_r12 0
L21_r12 0
L22_r12 0
L23_r12 0
R0_r12 0
R1_r12 0
R2_r12 0
R3_r12 0
R4_r12 0
R5_r12 0
R6_r12 0
R7_r12 0
R8_r12 0
R9_r12 0
R10_r12 0
R11_r12 0
R12_r12 0
R13_r12 0
R14_r12 0
R15_r12 0
R16_r12 0
R17_r12 0
R18_r12 0
R19_r12 0
R20_r12 0
R21_r12 0
R22_r12 0
R23_r12 0
v_AfterAnd_12_0 0
v_AfterAnd_12_1 0
v_AfterAnd_12_2 0
v_AfterAnd_12_3 0
v_AfterAnd_12_4 0
v_AfterAnd_12_5 0
v_AfterAnd_12_6 0
v_AfterAnd_12_7 0
v_AfterAnd_12_8 0
v_AfterAnd_12_9 0
v_AfterAnd_12_10 0
v_AfterAnd_12_11 0
v_AfterAnd_12_12 0
v_AfterAnd_12_13 0
v_AfterAnd_12_14 0
v_AfterAnd_12_15 0
v_AfterAnd_12_16 0
v_AfterAnd_12_17 0
v_AfterAnd_12_18 0
v_AfterAnd_12_19 0
v_AfterAnd_12_20 0
v_AfterAnd_12_21 0
v_AfterAnd_12_22 0
v_AfterAnd_12_23 0
S0_r12 0
S1_r12 0
S2_r12 0
S3_r12 1
S4_r12 0
S5_r12 0
S6_r12 0
S7_r12 0
S8_r12 0
S9_r12 0
S10_r12 0
S11_r12 0
S12_r12 0
S13_r12 0
S14_r12 0
S15_r12 0
S16_r12 0
S17_r12 0
S18_r12 0
S19_r12 0
S20_r12 1
S21_r12 0
S22_r12 0
S23_r12 0
L0_r13 0
L1_r13 0
L2_r13 1
L3_r13 0
L4_r13 0
L5_r13 0
L6_r13 0
L7_r13 0
L8_r13 0
L9_r13 0
L10_r13 0
L11_r13 0
L12_r13 0
L13_r13 0
L14_r13 0
L15_r13 0
L16_r13 0
L17_r13 0
L18_r13 0
L19_r13 0
L20_r13 0
L21_r13 0
L22_r13 0
L23_r13 0
R0_r13 0
R1_r13 0
R2_r13 0
R3_r13 0
R4_r13 1
R5_r13 0
R6_r13 0
R7_r13 0
R8_r13 0
R9_r13 0
R10_r13 0
R11_r13 0
R12_r13 0
R13_r13 0
R14_r13 0
R15_r13 0
R16_r13 0
R17_r13 0
R18_r13 0
R19_r13 0
R20_r13 0
R21_r13 0
R22_r13 0
R23_r13 0
v_AfterAnd_13_0 0
v_AfterAnd_13_1 0
v_AfterAnd_13_2 0
v_AfterAnd_13_3 0
v_AfterAnd_13_4 0
v_AfterAnd_13_5 0
v_AfterAnd_13_6 0
v_AfterAnd_13_7 0
v_AfterAnd_13_8 0
v_AfterAnd_13_9 0
v_AfterAnd_13_10 0
v_AfterAnd_13_11 0
v_AfterAnd_13_12 0
v_AfterAnd_13_13 0
v_AfterAnd_13_14 0
v_AfterAnd_13_15 0
v_AfterAnd_13_16 0
v_AfterAnd_13_17 0
v_AfterAnd_13_18 0
v_AfterAnd_13_19 0
v_AfterAnd_13_20 0
v_AfterAnd_13_21 0
v_AfterAnd_13_22 0
v_AfterAnd_13_23 0
S0_r13 0
S1_r13 1
S2_r13 0
S3_r13 0
S4_r13 0
S5_r13 0
S6_r13 0
S7_r13 0
S8_r13 0
S9_r13 0
S10_r13 0
S11_r13 0
S12_r13 0
S13_r13 0
S14_r13 0
S15_r13 0
S16_r13 0
S17_r13 0
S18_r13 1
S19_r13 0
S20_r13 0
S21_r13 0
S22_r13 0
S23_r13 0
L0_r14 1
L1_r14 0
L2_r14 0
L3_r14 0
L4_r14 1
L5_r14 0
L6_r14 0
L7_r14 0
L8_r14 0
L9_r14 0
L10_r14 0
L11_r14 0
L12_r14 0
L13_r14 0
L14_r14 0
L15_r14 0
L16_r14 0
L17_r14 0
L18_r14 0
L19_r14 0
L20_r14 0
L21_r14 0
L22_r14 0
L23_r14 0
R0_r14 0
R1_r14 0
R2_r14 1
R3_r14 0
R4_r14 0
R5_r14 0
R6_r14 0
R7_r14 0
R8_r14 0
R9_r14 0
R10_r14 0
R11_r14 0
R12_r14 0
R13_r14 0
R14_r14 0
R15_r14 0
R16_r14 0
R17_r14 0
R18_r14 0
R19_r14 0
R20_r14 0
R21_r14 0
R22_r14 0
R23_r14 0
v_AfterAnd_14_0 0
v_AfterAnd_14_1 0
v_AfterAnd_14_2 0
v_AfterAnd_14_3 0
v_AfterAnd_14_4 0
v_AfterAnd_14_5 0
v_AfterAnd_14_6 0
v_AfterAnd_14_7 0
v_AfterAnd_14_8 0
v_AfterAnd_14_9 0
v_AfterAnd_14_10 0
v_AfterAnd_14_11 0
v_AfterAnd_14_12 0
v_AfterAnd_14_13 0
v_AfterAnd_14_14 0
v_AfterAnd_14_15 0
v_AfterAnd_14_16 0
v_AfterAnd_14_17 0
v_AfterAnd_14_18 0
v_AfterAnd_14_19 0
v_AfterAnd_14_20 0
v_AfterAnd_14_21 0
v_AfterAnd_14_22 0
v_AfterAnd_14_23 0
S0_r14 0
S1_r14 0
S2_r14 0
S3_r14 1
S4_r14 0
S5_r14 0
S6_r14 0
S7_r14 0
S8_r14 0
S9_r14 0
S10_r14 0
S11_r14 0
S12_r14 0
S13_r14 0
S14_r14 0
S15_r14 0
S16_r14 1
S17_r14 0
S18_r14 0
S19_r14 0
S20_r14 1
S21_r14 0
S22_r14 0
S23_r14 1
L0_r15 0
L1_r15 0
L2_r15 0
L3_r15 0
L4_r15 0
L5_r15 0
L6_r15 0
L7_r15 0
L8_r15 0
L9_r15 0
L10_r15 0
L11_r15 0
L12_r15 0
L13_r15 0
L14_r15 0
L15_r15 0
L16_r15 0
L17_r15 0
L18_r15 0
L19_r15 0
L20_r15 0
L21_r15 0
L22_r15 1
L23_r15 0
R0_r15 1
R1_r15 0
R2_r15 0
R3_r15 0
R4_r15 1
R5_r15 0
R6_r15 0
R7_r15 0
R8_r15 0
R9_r15 0
R10_r15 0
R11_r15 0
R12_r15 0
R13_r15 0
R14_r15 0
R15_r15 0
R16_r15 0
R17_r15 0
R18_r15 0
R19_r15 0
R20_r15 0
R21_r15 0
R22_r15 0
R23_r15 0
v_AfterAnd_15_0 0
v_AfterAnd_15_1 0
v_AfterAnd_15_2 0
v_AfterAnd_15_3 0
v_AfterAnd_15_4 0
v_AfterAnd_15_5 0
v_AfterAnd_15_6 0
v_AfterAnd_15_7 0
v_AfterAnd_15_8 0
v_AfterAnd_15_9 0
v_AfterAnd_15_10 0
v_AfterAnd_15_11 0
v_AfterAnd_15_12 0
v_AfterAnd_15_13 0
v_AfterAnd_15_14 0
v_AfterAnd_15_15 0
v_AfterAnd_15_16 0
v_AfterAnd_15_17 0
v_AfterAnd_15_18 0
v_AfterAnd_15_19 0
v_AfterAnd_15_20 0
v_AfterAnd_15_21 0
v_AfterAnd_15_22 0
v_AfterAnd_15_23 0
S0_r15 0
S1_r15 0
S2_r15 0
S3_r15 0
S4_r15 0
S5_r15 0
S6_r15 0
S7_r15 0
S8_r15 0
S9_r15 0
S10_r15 0
S11_r15 0
S12_r15 0
S13_r15 0
S14_r15 1
S15_r15 0
S16_r15 0
S17_r15 0
S18_r15 0
S19_r15 0
S20_r15 0
S21_r15 1
S22_r15 0
S23_r15 0
L0_r16 1
L1_r16 0
L2_r16 0
L3_r16 0
L4_r16 1
L5_r16 0
L6_r16 0
L7_r16 0
L8_r16 0
L9_r16 0
L10_r16 0
L11_r16 0
L12_r16 0
L13_r16 0
L14_r16 0
L15_r16 0
L16_r16 0
L17_r16 0
L18_r16 0
L19_r16 0
L20_r16 1
L21_r16 0
L22_r16 0
L23_r16 0
R0_r16 0
R1_r16 0
R2_r16 0
R3_r16 0
R4_r16 0
R5_r16 0
R6_r16 0
R7_r16 0
R8_r16 0
R9_r16 0
R10_r16 0
R11_r16 0
R12_r16 0
R13_r16 0
R14_r16 0
R15_r16 0
R16_r16 0
R17_r16 0
R18_r16 0
R19_r16 0
R20_r16 0
R21_r16 0
R22_r16 1
R23_r16 0
